; benchmark generated from python API
(set-info :status unknown)
(declare-fun args_0_8 () (_ BitVec 8))
(declare-fun strlen_77_64 () (_ BitVec 64))
(declare-fun strlen_88_64 () (_ BitVec 64))
(declare-fun strlen_92_64 () (_ BitVec 64))
(declare-fun strlen_96_64 () (_ BitVec 64))
(declare-fun strlen_130_64 () (_ BitVec 64))
(declare-fun args_1_8 () (_ BitVec 8))
(declare-fun strlen_140_64 () (_ BitVec 64))
(declare-fun args_2_8 () (_ BitVec 8))
(declare-fun strlen_155_64 () (_ BitVec 64))
(declare-fun args_3_8 () (_ BitVec 8))
(declare-fun strlen_171_64 () (_ BitVec 64))
(declare-fun args_4_8 () (_ BitVec 8))
(declare-fun strlen_191_64 () (_ BitVec 64))
(declare-fun args_5_16 () (_ BitVec 16))
(declare-fun strlen_211_64 () (_ BitVec 64))
(declare-fun args_6_16 () (_ BitVec 16))
(declare-fun strlen_238_64 () (_ BitVec 64))
(declare-fun args_7_16 () (_ BitVec 16))
(declare-fun strlen_264_64 () (_ BitVec 64))
(declare-fun args_8_16 () (_ BitVec 16))
(declare-fun strlen_293_64 () (_ BitVec 64))
(declare-fun args_9_16 () (_ BitVec 16))
(declare-fun strlen_320_64 () (_ BitVec 64))
(declare-fun args_10_32 () (_ BitVec 32))
(declare-fun strlen_353_64 () (_ BitVec 64))
(declare-fun args_11_32 () (_ BitVec 32))
(declare-fun strlen_386_64 () (_ BitVec 64))
(declare-fun args_12_32 () (_ BitVec 32))
(declare-fun strlen_424_64 () (_ BitVec 64))
(declare-fun args_13_32 () (_ BitVec 32))
(declare-fun strlen_458_64 () (_ BitVec 64))
(declare-fun args_14_32 () (_ BitVec 32))
(declare-fun strlen_491_64 () (_ BitVec 64))
(declare-fun args_15_64 () (_ BitVec 64))
(declare-fun strlen_527_64 () (_ BitVec 64))
(declare-fun args_16_64 () (_ BitVec 64))
(declare-fun strlen_565_64 () (_ BitVec 64))
(declare-fun args_17_64 () (_ BitVec 64))
(declare-fun strlen_604_64 () (_ BitVec 64))
(declare-fun args_18_64 () (_ BitVec 64))
(declare-fun strlen_643_64 () (_ BitVec 64))
(declare-fun args_19_64 () (_ BitVec 64))
(declare-fun sys_time_1026_64 () (_ BitVec 64))
(declare-fun sys_time_1032_64 () (_ BitVec 64))
(assert
 (= (_ bv0 8) args_0_8))
(assert
 (= (_ bv0 64) strlen_77_64))
(assert
 (= (_ bv0 64) strlen_88_64))
(assert
 (= (_ bv0 64) strlen_92_64))
(assert
 (= (_ bv0 64) strlen_96_64))
(assert
 (let ((?x3542 (bvadd (_ bv576460752303357826 64) strlen_130_64)))
 (let (($x359 (= (_ bv0 8) args_1_8)))
 (let ((?x430 (ite $x359 (_ bv576460752303357826 64) (_ bv576460752303357827 64))))
 (= ?x430 ?x3542)))))
(assert
 (let ((?x4037 (bvadd (_ bv1 64) strlen_130_64)))
 (let ((?x4027 ((_ extract 63 2) ?x4037)))
 (= (_ bv0 62) ?x4027))))
(assert
 (let ((?x4032 ((_ extract 1 0) strlen_130_64)))
 (let ((?x3569 (bvadd (_ bv1 2) ?x4032)))
 (bvule ?x3569 (_ bv2 2)))))
(assert
 (bvule strlen_130_64 (_ bv18446744073709551614 64)))
(assert
 (let ((?x4843 (bvadd (_ bv576460752303357828 64) strlen_140_64)))
 (let (($x211 (= (_ bv0 8) args_2_8)))
 (let ((?x967 (ite $x211 (_ bv576460752303357828 64) (_ bv576460752303357829 64))))
 (= ?x967 ?x4843)))))
(assert
 (let ((?x5553 (bvadd (_ bv1 64) strlen_140_64)))
 (let ((?x2308 ((_ extract 63 2) ?x5553)))
 (= (_ bv0 62) ?x2308))))
(assert
 (let ((?x2348 ((_ extract 1 0) strlen_140_64)))
 (let ((?x5044 (bvadd (_ bv1 2) ?x2348)))
 (bvule ?x5044 (_ bv2 2)))))
(assert
 (bvule strlen_140_64 (_ bv18446744073709551614 64)))
(assert
 (let ((?x3256 (bvadd (_ bv576460752303357830 64) strlen_155_64)))
 (let (($x845 (= (_ bv0 8) args_3_8)))
 (let ((?x277 (ite $x845 (_ bv576460752303357830 64) (_ bv576460752303357831 64))))
 (= ?x277 ?x3256)))))
(assert
 (let ((?x6724 (bvadd (_ bv1 64) strlen_155_64)))
 (let ((?x3893 ((_ extract 63 2) ?x6724)))
 (= (_ bv0 62) ?x3893))))
(assert
 (let ((?x6591 ((_ extract 1 0) strlen_155_64)))
 (let ((?x6646 (bvadd (_ bv1 2) ?x6591)))
 (bvule ?x6646 (_ bv2 2)))))
(assert
 (bvule strlen_155_64 (_ bv18446744073709551614 64)))
(assert
 (let ((?x7306 (bvadd (_ bv576460752303357832 64) strlen_171_64)))
 (let (($x1140 (= (_ bv0 8) args_4_8)))
 (let ((?x1058 (ite $x1140 (_ bv576460752303357832 64) (_ bv576460752303357833 64))))
 (= ?x1058 ?x7306)))))
(assert
 (let ((?x2946 (bvadd (_ bv1 64) strlen_171_64)))
 (let ((?x7830 ((_ extract 63 2) ?x2946)))
 (= (_ bv0 62) ?x7830))))
(assert
 (let ((?x8118 ((_ extract 1 0) strlen_171_64)))
 (let ((?x8128 (bvadd (_ bv1 2) ?x8118)))
 (bvule ?x8128 (_ bv2 2)))))
(assert
 (bvule strlen_171_64 (_ bv18446744073709551614 64)))
(assert
 (let ((?x10488 (bvadd (_ bv576460752303357834 64) strlen_191_64)))
 (let ((?x1473 ((_ extract 7 0) args_5_16)))
 (let (($x1480 (= (_ bv0 8) ?x1473)))
 (let ((?x2699 (ite $x1480 (_ bv576460752303357835 64) (_ bv576460752303357836 64))))
 (let ((?x1474 ((_ extract 15 8) args_5_16)))
 (let (($x1010 (= (_ bv0 8) ?x1474)))
 (let ((?x912 (ite $x1010 (_ bv576460752303357834 64) ?x2699)))
 (= ?x912 ?x10488)))))))))
(assert
 (let ((?x10065 (bvadd (_ bv1 64) strlen_191_64)))
 (let ((?x9615 ((_ extract 63 2) ?x10065)))
 (= (_ bv0 62) ?x9615))))
(assert
 (bvule strlen_191_64 (_ bv18446744073709551614 64)))
(assert
 (let ((?x8656 (bvadd (_ bv576460752303357837 64) strlen_211_64)))
 (let ((?x1906 ((_ extract 7 0) args_6_16)))
 (let (($x1220 (= (_ bv0 8) ?x1906)))
 (let ((?x2396 (ite $x1220 (_ bv576460752303357838 64) (_ bv576460752303357839 64))))
 (let ((?x1646 ((_ extract 15 8) args_6_16)))
 (let (($x1544 (= (_ bv0 8) ?x1646)))
 (let ((?x2401 (ite $x1544 (_ bv576460752303357837 64) ?x2396)))
 (= ?x2401 ?x8656)))))))))
(assert
 (let ((?x11878 (bvadd (_ bv1 64) strlen_211_64)))
 (let ((?x12184 ((_ extract 63 2) ?x11878)))
 (= (_ bv0 62) ?x12184))))
(assert
 (bvule strlen_211_64 (_ bv18446744073709551614 64)))
(assert
 (let ((?x13898 (bvadd (_ bv576460752303357840 64) strlen_238_64)))
 (let ((?x944 ((_ extract 7 0) args_7_16)))
 (let (($x2153 (= (_ bv0 8) ?x944)))
 (let ((?x4174 (ite $x2153 (_ bv576460752303357841 64) (_ bv576460752303357842 64))))
 (let ((?x2056 ((_ extract 15 8) args_7_16)))
 (let (($x2419 (= (_ bv0 8) ?x2056)))
 (let ((?x3587 (ite $x2419 (_ bv576460752303357840 64) ?x4174)))
 (= ?x3587 ?x13898)))))))))
(assert
 (let ((?x14379 (bvadd (_ bv1 64) strlen_238_64)))
 (let ((?x14206 ((_ extract 63 2) ?x14379)))
 (= (_ bv0 62) ?x14206))))
(assert
 (bvule strlen_238_64 (_ bv18446744073709551614 64)))
(assert
 (let ((?x16923 (bvadd (_ bv576460752303357843 64) strlen_264_64)))
 (let ((?x2491 ((_ extract 7 0) args_8_16)))
 (let (($x3207 (= (_ bv0 8) ?x2491)))
 (let ((?x3024 (ite $x3207 (_ bv576460752303357844 64) (_ bv576460752303357845 64))))
 (let ((?x2766 ((_ extract 15 8) args_8_16)))
 (let (($x3226 (= (_ bv0 8) ?x2766)))
 (let ((?x3020 (ite $x3226 (_ bv576460752303357843 64) ?x3024)))
 (= ?x3020 ?x16923)))))))))
(assert
 (let ((?x17043 (bvadd (_ bv1 64) strlen_264_64)))
 (let ((?x16972 ((_ extract 63 2) ?x17043)))
 (= (_ bv0 62) ?x16972))))
(assert
 (bvule strlen_264_64 (_ bv18446744073709551614 64)))
(assert
 (let ((?x13622 (bvadd (_ bv576460752303357846 64) strlen_293_64)))
 (let ((?x3735 ((_ extract 7 0) args_9_16)))
 (let (($x3581 (= (_ bv0 8) ?x3735)))
 (let ((?x4338 (ite $x3581 (_ bv576460752303357847 64) (_ bv576460752303357848 64))))
 (let ((?x3102 ((_ extract 15 8) args_9_16)))
 (let (($x3771 (= (_ bv0 8) ?x3102)))
 (let ((?x4333 (ite $x3771 (_ bv576460752303357846 64) ?x4338)))
 (= ?x4333 ?x13622)))))))))
(assert
 (let ((?x12245 (bvadd (_ bv1 64) strlen_293_64)))
 (let ((?x15847 ((_ extract 63 2) ?x12245)))
 (= (_ bv0 62) ?x15847))))
(assert
 (bvule strlen_293_64 (_ bv18446744073709551614 64)))
(assert
 (let ((?x22645 (bvadd (_ bv576460752303357849 64) strlen_320_64)))
 (let ((?x3490 ((_ extract 7 0) args_10_32)))
 (let (($x3139 (= (_ bv0 8) ?x3490)))
 (let ((?x5565 (ite $x3139 (_ bv576460752303357852 64) (_ bv576460752303357853 64))))
 (let ((?x3761 ((_ extract 15 8) args_10_32)))
 (let (($x3847 (= (_ bv0 8) ?x3761)))
 (let ((?x5410 (ite $x3847 (_ bv576460752303357851 64) ?x5565)))
 (let ((?x3388 ((_ extract 23 16) args_10_32)))
 (let (($x3778 (= (_ bv0 8) ?x3388)))
 (let ((?x5402 (ite $x3778 (_ bv576460752303357850 64) ?x5410)))
 (let ((?x3227 ((_ extract 31 24) args_10_32)))
 (let (($x3588 (= (_ bv0 8) ?x3227)))
 (let ((?x5394 (ite $x3588 (_ bv576460752303357849 64) ?x5402)))
 (= ?x5394 ?x22645)))))))))))))))
(assert
 (let ((?x19544 (bvadd (_ bv1 64) strlen_320_64)))
 (let ((?x23014 ((_ extract 63 3) ?x19544)))
 (= (_ bv0 61) ?x23014))))
(assert
 (let ((?x22929 ((_ extract 2 0) strlen_320_64)))
 (let ((?x22990 (bvadd (_ bv1 3) ?x22929)))
 (bvule ?x22990 (_ bv5 3)))))
(assert
 (bvule strlen_320_64 (_ bv18446744073709551614 64)))
(assert
 (let ((?x26313 (bvadd (_ bv576460752303357854 64) strlen_353_64)))
 (let ((?x5702 ((_ extract 7 0) args_11_32)))
 (let (($x5773 (= (_ bv0 8) ?x5702)))
 (let ((?x6262 (ite $x5773 (_ bv576460752303357857 64) (_ bv576460752303357858 64))))
 (let ((?x5780 ((_ extract 15 8) args_11_32)))
 (let (($x5788 (= (_ bv0 8) ?x5780)))
 (let ((?x6329 (ite $x5788 (_ bv576460752303357856 64) ?x6262)))
 (let ((?x5688 ((_ extract 23 16) args_11_32)))
 (let (($x5775 (= (_ bv0 8) ?x5688)))
 (let ((?x7835 (ite $x5775 (_ bv576460752303357855 64) ?x6329)))
 (let ((?x5760 ((_ extract 31 24) args_11_32)))
 (let (($x5875 (= (_ bv0 8) ?x5760)))
 (let ((?x7768 (ite $x5875 (_ bv576460752303357854 64) ?x7835)))
 (= ?x7768 ?x26313)))))))))))))))
(assert
 (let ((?x26455 (bvadd (_ bv1 64) strlen_353_64)))
 (let ((?x26339 ((_ extract 63 3) ?x26455)))
 (= (_ bv0 61) ?x26339))))
(assert
 (let ((?x26770 ((_ extract 2 0) strlen_353_64)))
 (let ((?x28240 (bvadd (_ bv1 3) ?x26770)))
 (bvule ?x28240 (_ bv5 3)))))
(assert
 (bvule strlen_353_64 (_ bv18446744073709551614 64)))
(assert
 (let ((?x30383 (bvadd (_ bv576460752303357859 64) strlen_386_64)))
 (let ((?x6440 ((_ extract 7 0) args_12_32)))
 (let (($x6436 (= (_ bv0 8) ?x6440)))
 (let ((?x7707 (ite $x6436 (_ bv576460752303357862 64) (_ bv576460752303357863 64))))
 (let ((?x7075 ((_ extract 15 8) args_12_32)))
 (let (($x5268 (= (_ bv0 8) ?x7075)))
 (let ((?x7895 (ite $x5268 (_ bv576460752303357861 64) ?x7707)))
 (let ((?x5265 ((_ extract 23 16) args_12_32)))
 (let (($x4918 (= (_ bv0 8) ?x5265)))
 (let ((?x8083 (ite $x4918 (_ bv576460752303357860 64) ?x7895)))
 (let ((?x5236 ((_ extract 31 24) args_12_32)))
 (let (($x7048 (= (_ bv0 8) ?x5236)))
 (let ((?x8084 (ite $x7048 (_ bv576460752303357859 64) ?x8083)))
 (= ?x8084 ?x30383)))))))))))))))
(assert
 (let ((?x24346 (bvadd (_ bv1 64) strlen_386_64)))
 (let ((?x30456 ((_ extract 63 3) ?x24346)))
 (= (_ bv0 61) ?x30456))))
(assert
 (let ((?x24493 ((_ extract 2 0) strlen_386_64)))
 (let ((?x32211 (bvadd (_ bv1 3) ?x24493)))
 (bvule ?x32211 (_ bv5 3)))))
(assert
 (bvule strlen_386_64 (_ bv18446744073709551614 64)))
(assert
 (let ((?x33325 (bvadd (_ bv576460752303357864 64) strlen_424_64)))
 (let ((?x8592 ((_ extract 7 0) args_13_32)))
 (let (($x8567 (= (_ bv0 8) ?x8592)))
 (let ((?x12896 (ite $x8567 (_ bv576460752303357867 64) (_ bv576460752303357868 64))))
 (let ((?x8497 ((_ extract 15 8) args_13_32)))
 (let (($x8524 (= (_ bv0 8) ?x8497)))
 (let ((?x12930 (ite $x8524 (_ bv576460752303357866 64) ?x12896)))
 (let ((?x8547 ((_ extract 23 16) args_13_32)))
 (let (($x7742 (= (_ bv0 8) ?x8547)))
 (let ((?x12843 (ite $x7742 (_ bv576460752303357865 64) ?x12930)))
 (let ((?x8516 ((_ extract 31 24) args_13_32)))
 (let (($x8529 (= (_ bv0 8) ?x8516)))
 (let ((?x12905 (ite $x8529 (_ bv576460752303357864 64) ?x12843)))
 (= ?x12905 ?x33325)))))))))))))))
(assert
 (let ((?x31343 (bvadd (_ bv1 64) strlen_424_64)))
 (let ((?x33463 ((_ extract 63 3) ?x31343)))
 (= (_ bv0 61) ?x33463))))
(assert
 (let ((?x33531 ((_ extract 2 0) strlen_424_64)))
 (let ((?x33528 (bvadd (_ bv1 3) ?x33531)))
 (bvule ?x33528 (_ bv5 3)))))
(assert
 (bvule strlen_424_64 (_ bv18446744073709551614 64)))
(assert
 (let ((?x37336 (bvadd (_ bv576460752303357869 64) strlen_458_64)))
 (let ((?x8685 ((_ extract 7 0) args_14_32)))
 (let (($x8778 (= (_ bv0 8) ?x8685)))
 (let ((?x13011 (ite $x8778 (_ bv576460752303357872 64) (_ bv576460752303357873 64))))
 (let ((?x8754 ((_ extract 15 8) args_14_32)))
 (let (($x8818 (= (_ bv0 8) ?x8754)))
 (let ((?x13039 (ite $x8818 (_ bv576460752303357871 64) ?x13011)))
 (let ((?x8747 ((_ extract 23 16) args_14_32)))
 (let (($x8600 (= (_ bv0 8) ?x8747)))
 (let ((?x13055 (ite $x8600 (_ bv576460752303357870 64) ?x13039)))
 (let ((?x8789 ((_ extract 31 24) args_14_32)))
 (let (($x8713 (= (_ bv0 8) ?x8789)))
 (let ((?x13225 (ite $x8713 (_ bv576460752303357869 64) ?x13055)))
 (= ?x13225 ?x37336)))))))))))))))
(assert
 (let ((?x37733 (bvadd (_ bv1 64) strlen_458_64)))
 (let ((?x37573 ((_ extract 63 3) ?x37733)))
 (= (_ bv0 61) ?x37573))))
(assert
 (let ((?x37640 ((_ extract 2 0) strlen_458_64)))
 (let ((?x37373 (bvadd (_ bv1 3) ?x37640)))
 (bvule ?x37373 (_ bv5 3)))))
(assert
 (bvule strlen_458_64 (_ bv18446744073709551614 64)))
(assert
 (let ((?x40538 (bvadd (_ bv576460752303357874 64) strlen_491_64)))
 (let ((?x12719 ((_ extract 7 0) args_15_64)))
 (let (($x12599 (= (_ bv0 8) ?x12719)))
 (let ((?x13251 (ite $x12599 (_ bv576460752303357881 64) (_ bv576460752303357882 64))))
 (let ((?x12687 ((_ extract 15 8) args_15_64)))
 (let (($x12671 (= (_ bv0 8) ?x12687)))
 (let ((?x13247 (ite $x12671 (_ bv576460752303357880 64) ?x13251)))
 (let ((?x12566 ((_ extract 23 16) args_15_64)))
 (let (($x12715 (= (_ bv0 8) ?x12566)))
 (let ((?x13261 (ite $x12715 (_ bv576460752303357879 64) ?x13247)))
 (let ((?x12654 ((_ extract 31 24) args_15_64)))
 (let (($x12645 (= (_ bv0 8) ?x12654)))
 (let ((?x12676 (ite $x12645 (_ bv576460752303357878 64) ?x13261)))
 (let ((?x12395 ((_ extract 39 32) args_15_64)))
 (let (($x12668 (= (_ bv0 8) ?x12395)))
 (let ((?x12427 (ite $x12668 (_ bv576460752303357877 64) ?x12676)))
 (let ((?x12620 ((_ extract 47 40) args_15_64)))
 (let (($x12529 (= (_ bv0 8) ?x12620)))
 (let ((?x12859 (ite $x12529 (_ bv576460752303357876 64) ?x12427)))
 (let ((?x12640 ((_ extract 55 48) args_15_64)))
 (let (($x12613 (= (_ bv0 8) ?x12640)))
 (let ((?x13528 (ite $x12613 (_ bv576460752303357875 64) ?x12859)))
 (let ((?x12684 ((_ extract 63 56) args_15_64)))
 (let (($x12730 (= (_ bv0 8) ?x12684)))
 (let ((?x13670 (ite $x12730 (_ bv576460752303357874 64) ?x13528)))
 (= ?x13670 ?x40538)))))))))))))))))))))))))))
(assert
 (let ((?x42440 (bvadd (_ bv1 64) strlen_491_64)))
 (let ((?x42641 ((_ extract 63 4) ?x42440)))
 (= (_ bv0 60) ?x42641))))
(assert
 (let ((?x42366 ((_ extract 3 0) strlen_491_64)))
 (let ((?x42530 (bvadd (_ bv1 4) ?x42366)))
 (bvule ?x42530 (_ bv9 4)))))
(assert
 (bvule strlen_491_64 (_ bv18446744073709551614 64)))
(assert
 (let ((?x47214 (bvadd (_ bv576460752303357883 64) strlen_527_64)))
 (let ((?x16071 ((_ extract 7 0) args_16_64)))
 (let (($x15893 (= (_ bv0 8) ?x16071)))
 (let ((?x18009 (ite $x15893 (_ bv576460752303357890 64) (_ bv576460752303357891 64))))
 (let ((?x15920 ((_ extract 15 8) args_16_64)))
 (let (($x15905 (= (_ bv0 8) ?x15920)))
 (let ((?x18038 (ite $x15905 (_ bv576460752303357889 64) ?x18009)))
 (let ((?x16120 ((_ extract 23 16) args_16_64)))
 (let (($x16040 (= (_ bv0 8) ?x16120)))
 (let ((?x18044 (ite $x16040 (_ bv576460752303357888 64) ?x18038)))
 (let ((?x16091 ((_ extract 31 24) args_16_64)))
 (let (($x16125 (= (_ bv0 8) ?x16091)))
 (let ((?x18036 (ite $x16125 (_ bv576460752303357887 64) ?x18044)))
 (let ((?x16044 ((_ extract 39 32) args_16_64)))
 (let (($x16109 (= (_ bv0 8) ?x16044)))
 (let ((?x18029 (ite $x16109 (_ bv576460752303357886 64) ?x18036)))
 (let ((?x15231 ((_ extract 47 40) args_16_64)))
 (let (($x15832 (= (_ bv0 8) ?x15231)))
 (let ((?x18021 (ite $x15832 (_ bv576460752303357885 64) ?x18029)))
 (let ((?x15951 ((_ extract 55 48) args_16_64)))
 (let (($x15924 (= (_ bv0 8) ?x15951)))
 (let ((?x18015 (ite $x15924 (_ bv576460752303357884 64) ?x18021)))
 (let ((?x15821 ((_ extract 63 56) args_16_64)))
 (let (($x15881 (= (_ bv0 8) ?x15821)))
 (let ((?x18001 (ite $x15881 (_ bv576460752303357883 64) ?x18015)))
 (= ?x18001 ?x47214)))))))))))))))))))))))))))
(assert
 (let ((?x47531 (bvadd (_ bv1 64) strlen_527_64)))
 (let ((?x47630 ((_ extract 63 4) ?x47531)))
 (= (_ bv0 60) ?x47630))))
(assert
 (let ((?x44119 ((_ extract 3 0) strlen_527_64)))
 (let ((?x47505 (bvadd (_ bv1 4) ?x44119)))
 (bvule ?x47505 (_ bv9 4)))))
(assert
 (bvule strlen_527_64 (_ bv18446744073709551614 64)))
(assert
 (let ((?x52125 (bvadd (_ bv576460752303357892 64) strlen_565_64)))
 (let ((?x17285 ((_ extract 7 0) args_17_64)))
 (let (($x13048 (= (_ bv0 8) ?x17285)))
 (let ((?x19912 (ite $x13048 (_ bv576460752303357899 64) (_ bv576460752303357900 64))))
 (let ((?x16045 ((_ extract 15 8) args_17_64)))
 (let (($x16281 (= (_ bv0 8) ?x16045)))
 (let ((?x23127 (ite $x16281 (_ bv576460752303357898 64) ?x19912)))
 (let ((?x13888 ((_ extract 23 16) args_17_64)))
 (let (($x13927 (= (_ bv0 8) ?x13888)))
 (let ((?x22133 (ite $x13927 (_ bv576460752303357897 64) ?x23127)))
 (let ((?x16166 ((_ extract 31 24) args_17_64)))
 (let (($x14506 (= (_ bv0 8) ?x16166)))
 (let ((?x19735 (ite $x14506 (_ bv576460752303357896 64) ?x22133)))
 (let ((?x14555 ((_ extract 39 32) args_17_64)))
 (let (($x16257 (= (_ bv0 8) ?x14555)))
 (let ((?x20072 (ite $x16257 (_ bv576460752303357895 64) ?x19735)))
 (let ((?x16160 ((_ extract 47 40) args_17_64)))
 (let (($x17914 (= (_ bv0 8) ?x16160)))
 (let ((?x19859 (ite $x17914 (_ bv576460752303357894 64) ?x20072)))
 (let ((?x17949 ((_ extract 55 48) args_17_64)))
 (let (($x16357 (= (_ bv0 8) ?x17949)))
 (let ((?x20112 (ite $x16357 (_ bv576460752303357893 64) ?x19859)))
 (let ((?x16175 ((_ extract 63 56) args_17_64)))
 (let (($x16341 (= (_ bv0 8) ?x16175)))
 (let ((?x19993 (ite $x16341 (_ bv576460752303357892 64) ?x20112)))
 (= ?x19993 ?x52125)))))))))))))))))))))))))))
(assert
 (let ((?x52960 (bvadd (_ bv1 64) strlen_565_64)))
 (let ((?x49372 ((_ extract 63 4) ?x52960)))
 (= (_ bv0 60) ?x49372))))
(assert
 (let ((?x51260 ((_ extract 3 0) strlen_565_64)))
 (let ((?x51256 (bvadd (_ bv1 4) ?x51260)))
 (bvule ?x51256 (_ bv9 4)))))
(assert
 (bvule strlen_565_64 (_ bv18446744073709551614 64)))
(assert
 (let ((?x58373 (bvadd (_ bv576460752303357901 64) strlen_604_64)))
 (let ((?x21369 ((_ extract 7 0) args_18_64)))
 (let (($x23356 (= (_ bv0 8) ?x21369)))
 (let ((?x24376 (ite $x23356 (_ bv576460752303357908 64) (_ bv576460752303357909 64))))
 (let ((?x17981 ((_ extract 15 8) args_18_64)))
 (let (($x20999 (= (_ bv0 8) ?x17981)))
 (let ((?x24277 (ite $x20999 (_ bv576460752303357907 64) ?x24376)))
 (let ((?x23399 ((_ extract 23 16) args_18_64)))
 (let (($x23441 (= (_ bv0 8) ?x23399)))
 (let ((?x24342 (ite $x23441 (_ bv576460752303357906 64) ?x24277)))
 (let ((?x21200 ((_ extract 31 24) args_18_64)))
 (let (($x23434 (= (_ bv0 8) ?x21200)))
 (let ((?x24281 (ite $x23434 (_ bv576460752303357905 64) ?x24342)))
 (let ((?x18357 ((_ extract 39 32) args_18_64)))
 (let (($x23108 (= (_ bv0 8) ?x18357)))
 (let ((?x26188 (ite $x23108 (_ bv576460752303357904 64) ?x24281)))
 (let ((?x23328 ((_ extract 47 40) args_18_64)))
 (let (($x17902 (= (_ bv0 8) ?x23328)))
 (let ((?x26208 (ite $x17902 (_ bv576460752303357903 64) ?x26188)))
 (let ((?x15573 ((_ extract 55 48) args_18_64)))
 (let (($x23188 (= (_ bv0 8) ?x15573)))
 (let ((?x26014 (ite $x23188 (_ bv576460752303357902 64) ?x26208)))
 (let ((?x18296 ((_ extract 63 56) args_18_64)))
 (let (($x23498 (= (_ bv0 8) ?x18296)))
 (let ((?x25991 (ite $x23498 (_ bv576460752303357901 64) ?x26014)))
 (= ?x25991 ?x58373)))))))))))))))))))))))))))
(assert
 (let ((?x58482 (bvadd (_ bv1 64) strlen_604_64)))
 (let ((?x58478 ((_ extract 63 4) ?x58482)))
 (= (_ bv0 60) ?x58478))))
(assert
 (let ((?x53512 ((_ extract 3 0) strlen_604_64)))
 (let ((?x56977 (bvadd (_ bv1 4) ?x53512)))
 (bvule ?x56977 (_ bv9 4)))))
(assert
 (bvule strlen_604_64 (_ bv18446744073709551614 64)))
(assert
 (let ((?x64380 (bvadd (_ bv576460752303357910 64) strlen_643_64)))
 (let ((?x27336 ((_ extract 7 0) args_19_64)))
 (let (($x27385 (= (_ bv0 8) ?x27336)))
 (let ((?x20231 (ite $x27385 (_ bv576460752303357917 64) (_ bv576460752303357918 64))))
 (let ((?x25557 ((_ extract 15 8) args_19_64)))
 (let (($x25388 (= (_ bv0 8) ?x25557)))
 (let ((?x19999 (ite $x25388 (_ bv576460752303357916 64) ?x20231)))
 (let ((?x27267 ((_ extract 23 16) args_19_64)))
 (let (($x27378 (= (_ bv0 8) ?x27267)))
 (let ((?x20088 (ite $x27378 (_ bv576460752303357915 64) ?x19999)))
 (let ((?x25573 ((_ extract 31 24) args_19_64)))
 (let (($x27315 (= (_ bv0 8) ?x25573)))
 (let ((?x20060 (ite $x27315 (_ bv576460752303357914 64) ?x20088)))
 (let ((?x25213 ((_ extract 39 32) args_19_64)))
 (let (($x23385 (= (_ bv0 8) ?x25213)))
 (let ((?x20235 (ite $x23385 (_ bv576460752303357913 64) ?x20060)))
 (let ((?x27324 ((_ extract 47 40) args_19_64)))
 (let (($x27088 (= (_ bv0 8) ?x27324)))
 (let ((?x20237 (ite $x27088 (_ bv576460752303357912 64) ?x20235)))
 (let ((?x24874 ((_ extract 55 48) args_19_64)))
 (let (($x25431 (= (_ bv0 8) ?x24874)))
 (let ((?x20239 (ite $x25431 (_ bv576460752303357911 64) ?x20237)))
 (let ((?x27258 ((_ extract 63 56) args_19_64)))
 (let (($x26264 (= (_ bv0 8) ?x27258)))
 (let ((?x20241 (ite $x26264 (_ bv576460752303357910 64) ?x20239)))
 (= ?x20241 ?x64380)))))))))))))))))))))))))))
(assert
 (let ((?x62954 (bvadd (_ bv1 64) strlen_643_64)))
 (let ((?x62846 ((_ extract 63 4) ?x62954)))
 (= (_ bv0 60) ?x62846))))
(assert
 (let ((?x62917 ((_ extract 3 0) strlen_643_64)))
 (let ((?x62779 (bvadd (_ bv1 4) ?x62917)))
 (bvule ?x62779 (_ bv9 4)))))
(assert
 (bvule strlen_643_64 (_ bv18446744073709551614 64)))
(assert
 (bvsle (_ bv0 64) sys_time_1026_64))
(assert
 (bvsge sys_time_1032_64 sys_time_1026_64))
(maximize strlen_264_64)
(minimize strlen_604_64)
(minimize strlen_293_64)
(minimize args_6_16)
(minimize args_18_64)
(minimize strlen_491_64)
(minimize strlen_320_64)
(minimize args_8_16)
(maximize strlen_353_64)
(maximize strlen_604_64)
(maximize args_14_32)
(maximize args_11_32)
(minimize args_2_8)
(maximize args_8_16)
(maximize strlen_155_64)
(maximize strlen_171_64)
(maximize strlen_88_64)
(minimize strlen_458_64)
(minimize strlen_92_64)
(maximize strlen_458_64)
(minimize strlen_386_64)
(minimize args_14_32)
(maximize args_15_64)
(maximize strlen_527_64)
(maximize args_9_16)
(maximize args_10_32)
(maximize args_3_8)
(maximize strlen_491_64)
(maximize args_12_32)
(maximize strlen_140_64)
(minimize strlen_565_64)
(minimize args_1_8)
(minimize strlen_353_64)
(maximize strlen_565_64)
(maximize args_1_8)
(maximize strlen_320_64)
(minimize args_10_32)
(minimize args_5_16)
(minimize strlen_171_64)
(maximize args_16_64)
(minimize strlen_77_64)
(minimize sys_time_1026_64)
(minimize args_17_64)
(maximize args_13_32)
(maximize args_4_8)
(minimize strlen_140_64)
(maximize strlen_96_64)
(maximize args_5_16)
(maximize strlen_293_64)
(maximize args_17_64)
(minimize strlen_264_64)
(minimize args_11_32)
(maximize args_18_64)
(minimize args_19_64)
(minimize args_16_64)
(maximize strlen_424_64)
(minimize strlen_88_64)
(maximize args_6_16)
(maximize args_19_64)
(maximize args_0_8)
(maximize strlen_191_64)
(maximize strlen_643_64)
(check-sat)
(get-objectives)
